73
0 54 51 37 4 62 42 2 53 13 
56 60 41 32 25 3 7 34 69 16 
61 27 11 20 12 52 18 57 22 63 
55 68 44 50 24 58 64 36 31 9 
28 10 48 59 39 33 38 15 30 21 
67 14 29 72 70 43 46 49 6 8 
23 35 45 26 5 66 40 65 71 19 
47 1 17 
